NAME          COPTPROB
OBJSENSE
  MIN
ROWS
 N  __OBJ___
 L  C0      
 L  C1      
 L  C4      
 L  C5      
 L  C7      
 L  C9      
 L  C11     
 L  C13     
 L  C14     
 L  C16     
 L  C19     
 L  C20     
 L  C24     
 L  C25     
 L  C26     
 L  C34     
 L  C35     
 L  C38     
 L  C39     
 L  C42     
 L  C44     
 L  C51     
 L  C54     
 L  C58     
 L  C59     
 L  C60     
 L  C62     
 L  C64     
 L  C67     
 L  C70     
 L  C73     
 L  C74     
 L  C75     
 L  C76     
 L  C82     
 L  C83     
 L  C84     
 L  C85     
 L  C86     
 L  C87     
 L  C89     
 L  C90     
 L  C91     
 L  C92     
 L  C93     
 L  C98     
 L  C100    
 L  C105    
 L  C109    
 L  C119    
 L  C120    
 L  C121    
 L  C122    
 L  C123    
 L  C125    
 L  C126    
 L  C128    
 L  C129    
 L  C134    
 L  C136    
 L  C142    
 L  C144    
 L  C145    
 L  C146    
 L  C148    
 L  C149    
 L  C153    
 L  C154    
 L  C155    
 L  C160    
 L  C161    
 L  C164    
 L  C173    
 L  C179    
 L  C182    
 L  C183    
 L  C184    
 L  C190    
 L  C191    
 L  C192    
 L  C194    
 L  C198    
 L  C199    
 L  C201    
 L  C202    
 L  C203    
 L  C204    
 L  C206    
 L  C207    
 L  C208    
 L  C210    
 L  C211    
 L  C212    
 L  C214    
 L  C217    
 L  C222    
 L  C223    
 L  C224    
 L  C227    
 L  C228    
 L  C232    
 L  C238    
 L  C242    
 L  C245    
 L  C246    
 L  C247    
 L  C250    
 L  C253    
 L  C254    
 L  C256    
 L  C259    
 L  C260    
 L  C265    
 L  C266    
 L  C268    
 L  C270    
 L  C273    
 L  C275    
 L  C278    
 L  C282    
 L  C284    
 L  C285    
 L  C286    
 L  C287    
 L  C288    
 L  C292    
 L  C294    
 L  C298    
 L  C301    
 L  C303    
 L  C304    
 L  C305    
 L  C307    
 L  C308    
 L  C311    
 L  C314    
 L  C315    
 L  C316    
 L  C317    
 L  C320    
 L  C326    
 L  C329    
 L  C332    
 L  C333    
 L  C335    
 L  C337    
 L  C340    
 L  C341    
 L  C345    
 L  C346    
 L  C347    
 L  C348    
 L  C349    
 L  C353    
 L  C354    
 L  C357    
 L  C362    
 L  C363    
 L  C366    
 L  C367    
 L  C369    
 L  C371    
 L  C378    
 L  C382    
 L  C383    
 L  C386    
 L  C387    
 L  C392    
 L  C393    
 L  C395    
 L  C397    
 L  C399    
COLUMNS
    MARKER    'MARKER'                 'INTORG'
    x3        __OBJ___  849
    x3        C98       -1
    x3        C250      -1
    x3        C260      -1
    x3        C282      -1
    x3        C349      -1
    x5        __OBJ___  147
    x5        C44       -1
    x5        C201      -1
    x5        C227      -1
    x5        C305      -1
    x6        __OBJ___  630
    x6        C85       -1
    x6        C119      -1
    x6        C270      -1
    x6        C397      -1
    x10       __OBJ___  696
    x10       C87       -1
    x10       C122      -1
    x10       C134      -1
    x10       C142      -1
    x10       C182      -1
    x10       C224      -1
    x11       __OBJ___  590
    x11       C105      -1
    x11       C153      -1
    x11       C208      -1
    x11       C308      -1
    x11       C399      -1
    x13       __OBJ___  591
    x13       C183      -1
    x13       C253      -1
    x13       C386      -1
    x16       __OBJ___  6
    x16       C184      -1
    x16       C259      -1
    x18       __OBJ___  540
    x18       C64       -1
    x18       C84       -1
    x18       C161      -1
    x18       C288      -1
    x21       __OBJ___  115
    x21       C58       -1
    x21       C76       -1
    x24       __OBJ___  26
    x24       C247      -1
    x24       C315      -1
    x25       __OBJ___  462
    x25       C0        -1
    x25       C155      -1
    x29       __OBJ___  892
    x29       C190      -1
    x29       C285      -1
    x29       C371      -1
    x29       C382      -1
    x35       __OBJ___  559
    x35       C11       -1
    x35       C100      -1
    x35       C128      -1
    x35       C146      -1
    x36       __OBJ___  659
    x36       C39       -1
    x36       C59       -1
    x36       C148      -1
    x36       C265      -1
    x36       C317      -1
    x36       C354      -1
    x36       C367      -1
    x37       __OBJ___  625
    x37       C14       -1
    x37       C51       -1
    x37       C278      -1
    x38       __OBJ___  688
    x38       C60       -1
    x38       C82       -1
    x38       C160      -1
    x38       C284      -1
    x39       __OBJ___  153
    x39       C268      -1
    x40       __OBJ___  54
    x40       C194      -1
    x40       C214      -1
    x40       C333      -1
    x41       __OBJ___  585
    x41       C92       -1
    x41       C109      -1
    x41       C212      -1
    x41       C326      -1
    x44       __OBJ___  69
    x44       C4        -1
    x44       C346      -1
    x45       __OBJ___  80
    x45       C7        -1
    x45       C54       -1
    x45       C73       -1
    x45       C316      -1
    x47       __OBJ___  997
    x47       C191      -1
    x47       C357      -1
    x50       __OBJ___  24
    x50       C75       -1
    x50       C304      -1
    x53       __OBJ___  81
    x53       C353      -1
    x53       C393      -1
    x64       __OBJ___  470
    x64       C145      -1
    x64       C294      -1
    x64       C362      -1
    x64       C392      -1
    x65       __OBJ___  624
    x65       C311      -1
    x65       C341      -1
    x65       C347      -1
    x66       __OBJ___  98
    x66       C144      -1
    x66       C173      -1
    x66       C211      -1
    x66       C232      -1
    x67       __OBJ___  354
    x67       C74       -1
    x67       C204      -1
    x67       C246      -1
    x71       __OBJ___  51
    x71       C34       -1
    x71       C67       -1
    x75       __OBJ___  304
    x75       C179      -1
    x75       C206      -1
    x75       C217      -1
    x75       C337      -1
    x75       C345      -1
    x76       __OBJ___  203
    x76       C5        -1
    x76       C121      -1
    x76       C387      -1
    x76       C395      -1
    x77       __OBJ___  243
    x77       C9        -1
    x77       C89       -1
    x77       C202      -1
    x81       __OBJ___  321
    x81       C24       -1
    x81       C120      -1
    x81       C329      -1
    x83       __OBJ___  934
    x83       C154      -1
    x83       C192      -1
    x83       C256      -1
    x83       C303      -1
    x86       __OBJ___  298
    x86       C266      -1
    x86       C287      -1
    x87       __OBJ___  769
    x87       C149      -1
    x87       C242      -1
    x87       C292      -1
    x87       C335      -1
    x87       C340      -1
    x89       __OBJ___  351
    x89       C363      -1
    x89       C369      -1
    x90       __OBJ___  937
    x90       C26       -1
    x90       C136      -1
    x90       C275      -1
    x90       C383      -1
    x96       __OBJ___  71
    x96       C83       -1
    x96       C348      -1
    x98       __OBJ___  317
    x98       C35       -1
    x98       C62       -1
    x98       C207      -1
    x98       C222      -1
    x99       __OBJ___  50
    x99       C164      -1
    x99       C198      -1
    x99       C227      -1
    x99       C273      -1
    x99       C366      -1
    x100      __OBJ___  55
    x100      C93       -1
    x100      C146      -1
    x100      C329      -1
    x103      __OBJ___  70
    x103      C129      -1
    x103      C232      -1
    x103      C304      -1
    x106      __OBJ___  929
    x106      C0        -1
    x106      C182      -1
    x111      __OBJ___  284
    x111      C42       -1
    x111      C204      -1
    x111      C335      -1
    x112      __OBJ___  43
    x112      C369      -1
    x115      __OBJ___  469
    x115      C42       -1
    x115      C317      -1
    x115      C353      -1
    x119      __OBJ___  284
    x119      C105      -1
    x119      C242      -1
    x119      C288      -1
    x119      C294      -1
    x121      __OBJ___  242
    x121      C75       -1
    x121      C173      -1
    x121      C287      -1
    x122      __OBJ___  476
    x122      C93       -1
    x122      C214      -1
    x122      C308      -1
    x124      __OBJ___  163
    x124      C217      -1
    x127      __OBJ___  255
    x127      C136      -1
    x127      C349      -1
    x127      C393      -1
    x129      __OBJ___  10
    x129      C60       -1
    x129      C125      -1
    x136      __OBJ___  62
    x136      C13       -1
    x136      C122      -1
    x136      C238      -1
    x138      __OBJ___  91
    x138      C44       -1
    x138      C298      -1
    x139      __OBJ___  572
    x139      C154      -1
    x139      C202      -1
    x139      C348      -1
    x143      __OBJ___  96
    x143      C256      -1
    x144      __OBJ___  138
    x144      C54       -1
    x144      C245      -1
    x144      C265      -1
    x144      C378      -1
    x146      __OBJ___  240
    x146      C73       -1
    x146      C270      -1
    x148      __OBJ___  380
    x148      C1        -1
    x148      C74       -1
    x148      C204      -1
    x148      C392      -1
    x148      C395      -1
    x151      __OBJ___  263
    x151      C7        -1
    x151      C84       -1
    x151      C206      -1
    x151      C253      -1
    x153      __OBJ___  334
    x153      C129      -1
    x153      C247      -1
    x153      C349      -1
    x155      __OBJ___  123
    x155      C371      -1
    x160      __OBJ___  21
    x160      C70       -1
    x160      C311      -1
    x161      __OBJ___  802
    x161      C92       -1
    x161      C357      -1
    x161      C386      -1
    x163      __OBJ___  293
    x163      C20       -1
    x163      C155      -1
    x163      C160      -1
    x164      __OBJ___  531
    x164      C39       -1
    x164      C70       -1
    x164      C273      -1
    x164      C329      -1
    x164      C362      -1
    x165      __OBJ___  116
    x165      C83       -1
    x165      C286      -1
    x166      __OBJ___  382
    x166      C100      -1
    x166      C198      -1
    x166      C203      -1
    x168      __OBJ___  691
    x168      C24       -1
    x168      C134      -1
    x168      C278      -1
    x170      __OBJ___  187
    x170      C83       -1
    x170      C121      -1
    x170      C222      -1
    x173      __OBJ___  56
    x173      C362      -1
    x175      __OBJ___  302
    x175      C58       -1
    x175      C62       -1
    x175      C238      -1
    x175      C298      -1
    x177      __OBJ___  240
    x177      C7        -1
    x177      C64       -1
    x177      C320      -1
    x177      C337      -1
    x179      __OBJ___  579
    x179      C0        -1
    x179      C192      -1
    x179      C353      -1
    x181      __OBJ___  327
    x181      C82       -1
    x181      C232      -1
    x181      C273      -1
    x184      __OBJ___  485
    x184      C24       -1
    x184      C191      -1
    x184      C346      -1
    x187      __OBJ___  86
    x187      C201      -1
    x187      C222      -1
    x189      __OBJ___  526
    x189      C4        -1
    x189      C119      -1
    x193      __OBJ___  666
    x193      C35       -1
    x193      C100      -1
    x193      C146      -1
    x193      C270      -1
    x194      __OBJ___  145
    x194      C26       -1
    x194      C74       -1
    x197      __OBJ___  659
    x197      C38       -1
    x197      C92       -1
    x197      C129      -1
    x197      C253      -1
    x198      __OBJ___  350
    x198      C202      -1
    x198      C340      -1
    x198      C371      -1
    x199      __OBJ___  395
    x199      C54       -1
    x199      C284      -1
    x199      C348      -1
    x199      C354      -1
    x200      __OBJ___  976
    x200      C83       -1
    x200      C89       -1
    x200      C228      -1
    x200      C314      -1
    x202      __OBJ___  562
    x202      C242      -1
    x202      C307      -1
    x202      C332      -1
    x202      C348      -1
    x204      __OBJ___  303
    x204      C347      -1
    x204      C369      -1
    x205      __OBJ___  33
    x205      C75       -1
    x205      C120      -1
    x207      __OBJ___  55
    x207      C20       -1
    x207      C173      -1
    x207      C223      -1
    x207      C245      -1
    x207      C254      -1
    x207      C316      -1
    x210      __OBJ___  648
    x210      C16       -1
    x210      C35       -1
    x210      C153      -1
    x212      __OBJ___  181
    x212      C286      -1
    x212      C294      -1
    x214      __OBJ___  931
    x214      C11       -1
    x214      C154      -1
    x215      __OBJ___  90
    x215      C76       -1
    x215      C201      -1
    x215      C222      -1
    x222      __OBJ___  872
    x222      C260      -1
    x222      C292      -1
    x222      C314      -1
    x224      __OBJ___  701
    x224      C87       -1
    x224      C142      -1
    x224      C223      -1
    x224      C254      -1
    x224      C357      -1
    x226      __OBJ___  234
    x226      C16       -1
    x226      C190      -1
    x227      __OBJ___  318
    x227      C9        -1
    x227      C341      -1
    x227      C346      -1
    x231      __OBJ___  734
    x231      C161      -1
    x231      C199      -1
    x231      C265      -1
    x231      C266      -1
    x232      __OBJ___  663
    x232      C182      -1
    x232      C214      -1
    x232      C266      -1
    x234      __OBJ___  424
    x234      C42       -1
    x234      C126      -1
    x234      C232      -1
    x234      C268      -1
    x235      __OBJ___  195
    x235      C126      -1
    x235      C397      -1
    x237      __OBJ___  407
    x237      C90       -1
    x237      C387      -1
    x237      C392      -1
    x239      __OBJ___  186
    x239      C198      -1
    x239      C217      -1
    x239      C227      -1
    x241      __OBJ___  106
    x241      C148      -1
    x243      __OBJ___  320
    x243      C91       -1
    x243      C203      -1
    x243      C333      -1
    x244      __OBJ___  328
    x244      C198      -1
    x244      C203      -1
    x244      C253      -1
    x244      C259      -1
    x244      C383      -1
    x245      __OBJ___  356
    x245      C160      -1
    x245      C228      -1
    x248      __OBJ___  406
    x248      C42       -1
    x248      C92       -1
    x248      C142      -1
    x257      __OBJ___  450
    x257      C11       -1
    x257      C183      -1
    x257      C382      -1
    x258      __OBJ___  131
    x258      C86       -1
    x258      C210      -1
    x260      __OBJ___  532
    x260      C119      -1
    x260      C125      -1
    x260      C145      -1
    x260      C315      -1
    x264      __OBJ___  12
    x264      C353      -1
    x267      __OBJ___  540
    x267      C182      -1
    x267      C198      -1
    x267      C207      -1
    x273      __OBJ___  549
    x273      C59       -1
    x273      C83       -1
    x277      __OBJ___  314
    x277      C128      -1
    x277      C326      -1
    x284      __OBJ___  883
    x284      C123      -1
    x284      C232      -1
    x284      C354      -1
    x284      C386      -1
    x286      __OBJ___  8
    x286      C85       -1
    x286      C329      -1
    x287      __OBJ___  874
    x287      C91       -1
    x287      C109      -1
    x287      C121      -1
    x287      C129      -1
    x289      __OBJ___  343
    x289      C34       -1
    x289      C382      -1
    x291      __OBJ___  569
    x291      C211      -1
    x291      C250      -1
    x292      __OBJ___  95
    x292      C335      -1
    x293      __OBJ___  166
    x293      C93       -1
    x293      C214      -1
    x293      C335      -1
    x294      __OBJ___  364
    x294      C44       -1
    x294      C142      -1
    x294      C210      -1
    x294      C268      -1
    x300      __OBJ___  535
    x300      C16       -1
    x300      C199      -1
    x300      C305      -1
    x301      __OBJ___  228
    x301      C14       -1
    x301      C34       -1
    x301      C87       -1
    x301      C285      -1
    x307      __OBJ___  439
    x307      C11       -1
    x307      C86       -1
    x308      __OBJ___  414
    x308      C85       -1
    x308      C98       -1
    x308      C256      -1
    x308      C320      -1
    x308      C363      -1
    x310      __OBJ___  533
    x310      C0        -1
    x310      C14       -1
    x310      C38       -1
    x310      C204      -1
    x311      __OBJ___  228
    x311      C98       -1
    x311      C335      -1
    x312      __OBJ___  612
    x312      C19       -1
    x312      C24       -1
    x312      C82       -1
    x316      __OBJ___  222
    x316      C145      -1
    x316      C227      -1
    x316      C256      -1
    x318      __OBJ___  510
    x318      C51       -1
    x318      C146      -1
    x318      C265      -1
    x320      __OBJ___  26
    x320      C25       -1
    x320      C83       -1
    x320      C246      -1
    x322      __OBJ___  186
    x322      C202      -1
    x323      __OBJ___  294
    x323      C19       -1
    x323      C144      -1
    x323      C292      -1
    x325      __OBJ___  257
    x325      C121      -1
    x325      C208      -1
    x325      C253      -1
    x327      __OBJ___  441
    x327      C121      -1
    x327      C183      -1
    x327      C332      -1
    x330      __OBJ___  190
    x330      C42       -1
    x330      C301      -1
    x330      C399      -1
    x331      __OBJ___  88
    x331      C4        -1
    x331      C245      -1
    x333      __OBJ___  705
    x333      C67       -1
    x333      C161      -1
    x333      C208      -1
    x333      C242      -1
    x334      __OBJ___  340
    x334      C1        -1
    x334      C320      -1
    x336      __OBJ___  65
    x336      C35       -1
    x336      C58       -1
    x336      C301      -1
    x336      C378      -1
    x336      C387      -1
    x339      __OBJ___  511
    x339      C84       -1
    x339      C134      -1
    x339      C301      -1
    x339      C303      -1
    x341      __OBJ___  492
    x341      C149      -1
    x341      C363      -1
    x342      __OBJ___  491
    x342      C19       -1
    x342      C182      -1
    x342      C259      -1
    x342      C284      -1
    x346      __OBJ___  3
    x346      C292      -1
    x348      __OBJ___  287
    x348      C204      -1
    x348      C212      -1
    x348      C345      -1
    x351      __OBJ___  510
    x351      C5        -1
    x351      C201      -1
    x351      C228      -1
    x353      __OBJ___  653
    x353      C224      -1
    x353      C307      -1
    x353      C316      -1
    x354      __OBJ___  370
    x354      C161      -1
    x354      C192      -1
    x356      __OBJ___  733
    x356      C90       -1
    x356      C275      -1
    x358      __OBJ___  173
    x358      C76       -1
    x358      C199      -1
    x358      C287      -1
    x358      C332      -1
    x359      __OBJ___  387
    x359      C128      -1
    x359      C307      -1
    x359      C392      -1
    x361      __OBJ___  558
    x361      C100      -1
    x361      C268      -1
    x361      C314      -1
    x362      __OBJ___  357
    x362      C1        -1
    x362      C20       -1
    x362      C44       -1
    x362      C194      -1
    x362      C303      -1
    x362      C366      -1
    x364      __OBJ___  233
    x364      C134      -1
    x364      C146      -1
    x365      __OBJ___  478
    x365      C73       -1
    x365      C90       -1
    x365      C212      -1
    x365      C222      -1
    x365      C371      -1
    x366      __OBJ___  337
    x366      C64       -1
    x366      C192      -1
    x366      C294      -1
    x367      __OBJ___  125
    x367      C38       -1
    x367      C145      -1
    x367      C184      -1
    x369      __OBJ___  14
    x369      C87       -1
    x369      C123      -1
    x369      C146      -1
    x370      __OBJ___  430
    x370      C51       -1
    x370      C275      -1
    x373      __OBJ___  477
    x373      C119      -1
    x373      C286      -1
    x376      __OBJ___  426
    x376      C13       -1
    x376      C25       -1
    x376      C282      -1
    x381      __OBJ___  63
    x381      C179      -1
    x381      C301      -1
    x383      __OBJ___  316
    x383      C60       -1
    x383      C363      -1
    x384      __OBJ___  300
    x384      C164      -1
    x384      C278      -1
    x385      __OBJ___  628
    x385      C19       -1
    x385      C315      -1
    x385      C367      -1
    x387      __OBJ___  554
    x387      C109      -1
    x387      C148      -1
    x387      C160      -1
    x390      __OBJ___  162
    x390      C5        -1
    x390      C74       -1
    x390      C207      -1
    x390      C210      -1
    x395      __OBJ___  190
    x395      C62       -1
    x395      C128      -1
    x395      C223      -1
    x400      __OBJ___  758
    x400      C86       -1
    x400      C149      -1
    x400      C153      -1
    x400      C242      -1
    x400      C254      -1
    MARKER    'MARKER'                 'INTEND'
RHS
    RHS       __OBJ___  -18443
    RHS       C0        -1
    RHS       C1        -1
    RHS       C4        -1
    RHS       C5        -1
    RHS       C7        -1
    RHS       C9        -1
    RHS       C11       -1
    RHS       C13       -1
    RHS       C14       -1
    RHS       C16       -1
    RHS       C19       -1
    RHS       C20       -1
    RHS       C24       -1
    RHS       C25       -1
    RHS       C26       -1
    RHS       C34       -1
    RHS       C35       -1
    RHS       C38       -1
    RHS       C39       -1
    RHS       C42       -1
    RHS       C44       -1
    RHS       C51       -1
    RHS       C54       -1
    RHS       C58       -1
    RHS       C59       -1
    RHS       C60       -1
    RHS       C62       -1
    RHS       C64       -1
    RHS       C67       -1
    RHS       C70       -1
    RHS       C73       -1
    RHS       C74       -1
    RHS       C75       -1
    RHS       C76       -1
    RHS       C82       -1
    RHS       C83       -1
    RHS       C84       -1
    RHS       C85       -1
    RHS       C86       -1
    RHS       C87       -1
    RHS       C89       -1
    RHS       C90       -1
    RHS       C91       -1
    RHS       C92       -1
    RHS       C93       -1
    RHS       C98       -1
    RHS       C100      -1
    RHS       C105      -1
    RHS       C109      -1
    RHS       C119      -1
    RHS       C120      -1
    RHS       C121      -1
    RHS       C122      -1
    RHS       C123      -1
    RHS       C125      -1
    RHS       C126      -1
    RHS       C128      -1
    RHS       C129      -1
    RHS       C134      -1
    RHS       C136      -1
    RHS       C142      -1
    RHS       C144      -1
    RHS       C145      -1
    RHS       C146      -1
    RHS       C148      -1
    RHS       C149      -1
    RHS       C153      -1
    RHS       C154      -1
    RHS       C155      -1
    RHS       C160      -1
    RHS       C161      -1
    RHS       C164      -1
    RHS       C173      -1
    RHS       C179      -1
    RHS       C182      -1
    RHS       C183      -1
    RHS       C184      -1
    RHS       C190      -1
    RHS       C191      -1
    RHS       C192      -1
    RHS       C194      -1
    RHS       C198      -1
    RHS       C199      -1
    RHS       C201      -1
    RHS       C202      -1
    RHS       C203      -1
    RHS       C204      -1
    RHS       C206      -1
    RHS       C207      -1
    RHS       C208      -1
    RHS       C210      -1
    RHS       C211      -1
    RHS       C212      -1
    RHS       C214      -1
    RHS       C217      -1
    RHS       C222      -1
    RHS       C223      -1
    RHS       C224      -1
    RHS       C227      -1
    RHS       C228      -1
    RHS       C232      -1
    RHS       C238      -1
    RHS       C242      -1
    RHS       C245      -1
    RHS       C246      -1
    RHS       C247      -1
    RHS       C250      -1
    RHS       C253      -1
    RHS       C254      -1
    RHS       C256      -1
    RHS       C259      -1
    RHS       C260      -1
    RHS       C265      -1
    RHS       C266      -1
    RHS       C268      -1
    RHS       C270      -1
    RHS       C273      -1
    RHS       C275      -1
    RHS       C278      -1
    RHS       C282      -1
    RHS       C284      -1
    RHS       C285      -1
    RHS       C286      -1
    RHS       C287      -1
    RHS       C288      -1
    RHS       C292      -1
    RHS       C294      -1
    RHS       C298      -1
    RHS       C301      -1
    RHS       C303      -1
    RHS       C304      -1
    RHS       C305      -1
    RHS       C307      -1
    RHS       C308      -1
    RHS       C311      -1
    RHS       C314      -1
    RHS       C315      -1
    RHS       C316      -1
    RHS       C317      -1
    RHS       C320      -1
    RHS       C326      -1
    RHS       C329      -1
    RHS       C332      -1
    RHS       C333      -1
    RHS       C335      -1
    RHS       C337      -1
    RHS       C340      -1
    RHS       C341      -1
    RHS       C345      -1
    RHS       C346      -1
    RHS       C347      -1
    RHS       C348      -1
    RHS       C349      -1
    RHS       C353      -1
    RHS       C354      -1
    RHS       C357      -1
    RHS       C362      -1
    RHS       C363      -1
    RHS       C366      -1
    RHS       C367      -1
    RHS       C369      -1
    RHS       C371      -1
    RHS       C378      -1
    RHS       C382      -1
    RHS       C383      -1
    RHS       C386      -1
    RHS       C387      -1
    RHS       C392      -1
    RHS       C393      -1
    RHS       C395      -1
    RHS       C397      -1
    RHS       C399      -1
BOUNDS
 UP BOUND     x3        1
 UP BOUND     x5        1
 UP BOUND     x6        1
 UP BOUND     x10       1
 UP BOUND     x11       1
 UP BOUND     x13       1
 UP BOUND     x16       1
 UP BOUND     x18       1
 UP BOUND     x21       1
 UP BOUND     x24       1
 UP BOUND     x25       1
 UP BOUND     x29       1
 UP BOUND     x35       1
 UP BOUND     x36       1
 UP BOUND     x37       1
 UP BOUND     x38       1
 UP BOUND     x39       1
 UP BOUND     x40       1
 UP BOUND     x41       1
 UP BOUND     x44       1
 UP BOUND     x45       1
 UP BOUND     x47       1
 UP BOUND     x50       1
 UP BOUND     x53       1
 UP BOUND     x64       1
 UP BOUND     x65       1
 UP BOUND     x66       1
 UP BOUND     x67       1
 UP BOUND     x71       1
 UP BOUND     x75       1
 UP BOUND     x76       1
 UP BOUND     x77       1
 UP BOUND     x81       1
 UP BOUND     x83       1
 UP BOUND     x86       1
 UP BOUND     x87       1
 UP BOUND     x89       1
 UP BOUND     x90       1
 UP BOUND     x96       1
 UP BOUND     x98       1
 UP BOUND     x99       1
 UP BOUND     x100      1
 UP BOUND     x103      1
 UP BOUND     x106      1
 UP BOUND     x111      1
 UP BOUND     x112      1
 UP BOUND     x115      1
 UP BOUND     x119      1
 UP BOUND     x121      1
 UP BOUND     x122      1
 UP BOUND     x124      1
 UP BOUND     x127      1
 UP BOUND     x129      1
 UP BOUND     x136      1
 UP BOUND     x138      1
 UP BOUND     x139      1
 UP BOUND     x143      1
 UP BOUND     x144      1
 UP BOUND     x146      1
 UP BOUND     x148      1
 UP BOUND     x151      1
 UP BOUND     x153      1
 UP BOUND     x155      1
 UP BOUND     x160      1
 UP BOUND     x161      1
 UP BOUND     x163      1
 UP BOUND     x164      1
 UP BOUND     x165      1
 UP BOUND     x166      1
 UP BOUND     x168      1
 UP BOUND     x170      1
 UP BOUND     x173      1
 UP BOUND     x175      1
 UP BOUND     x177      1
 UP BOUND     x179      1
 UP BOUND     x181      1
 UP BOUND     x184      1
 UP BOUND     x187      1
 UP BOUND     x189      1
 UP BOUND     x193      1
 UP BOUND     x194      1
 UP BOUND     x197      1
 UP BOUND     x198      1
 UP BOUND     x199      1
 UP BOUND     x200      1
 UP BOUND     x202      1
 UP BOUND     x204      1
 UP BOUND     x205      1
 UP BOUND     x207      1
 UP BOUND     x210      1
 UP BOUND     x212      1
 UP BOUND     x214      1
 UP BOUND     x215      1
 UP BOUND     x222      1
 UP BOUND     x224      1
 UP BOUND     x226      1
 UP BOUND     x227      1
 UP BOUND     x231      1
 UP BOUND     x232      1
 UP BOUND     x234      1
 UP BOUND     x235      1
 UP BOUND     x237      1
 UP BOUND     x239      1
 UP BOUND     x241      1
 UP BOUND     x243      1
 UP BOUND     x244      1
 UP BOUND     x245      1
 UP BOUND     x248      1
 UP BOUND     x257      1
 UP BOUND     x258      1
 UP BOUND     x260      1
 UP BOUND     x264      1
 UP BOUND     x267      1
 UP BOUND     x273      1
 UP BOUND     x277      1
 UP BOUND     x284      1
 UP BOUND     x286      1
 UP BOUND     x287      1
 UP BOUND     x289      1
 UP BOUND     x291      1
 UP BOUND     x292      1
 UP BOUND     x293      1
 UP BOUND     x294      1
 UP BOUND     x300      1
 UP BOUND     x301      1
 UP BOUND     x307      1
 UP BOUND     x308      1
 UP BOUND     x310      1
 UP BOUND     x311      1
 UP BOUND     x312      1
 UP BOUND     x316      1
 UP BOUND     x318      1
 UP BOUND     x320      1
 UP BOUND     x322      1
 UP BOUND     x323      1
 UP BOUND     x325      1
 UP BOUND     x327      1
 UP BOUND     x330      1
 UP BOUND     x331      1
 UP BOUND     x333      1
 UP BOUND     x334      1
 UP BOUND     x336      1
 UP BOUND     x339      1
 UP BOUND     x341      1
 UP BOUND     x342      1
 UP BOUND     x346      1
 UP BOUND     x348      1
 UP BOUND     x351      1
 UP BOUND     x353      1
 UP BOUND     x354      1
 UP BOUND     x356      1
 UP BOUND     x358      1
 UP BOUND     x359      1
 UP BOUND     x361      1
 UP BOUND     x362      1
 UP BOUND     x364      1
 UP BOUND     x365      1
 UP BOUND     x366      1
 UP BOUND     x367      1
 UP BOUND     x369      1
 UP BOUND     x370      1
 UP BOUND     x373      1
 UP BOUND     x376      1
 UP BOUND     x381      1
 UP BOUND     x383      1
 UP BOUND     x384      1
 UP BOUND     x385      1
 UP BOUND     x387      1
 UP BOUND     x390      1
 UP BOUND     x395      1
 UP BOUND     x400      1
ENDATA
